p cnf 90 642
1 2 3 0
4 5 6 0
7 8 9 0
10 11 12 0
13 14 15 0
16 17 18 0
19 20 21 0
22 23 24 0
25 26 27 0
28 29 30 0
31 32 33 0
34 35 36 0
37 38 39 0
40 41 42 0
43 44 45 0
46 47 48 0
49 50 51 0
52 53 54 0
55 56 57 0
58 59 60 0
61 62 63 0
64 65 66 0
67 68 69 0
70 71 72 0
73 74 75 0
76 77 78 0
79 80 81 0
82 83 84 0
85 86 87 0
88 89 90 0
-1 -2 0
-1 -3 0
-2 -3 0
-4 -5 0
-4 -6 0
-5 -6 0
-7 -8 0
-7 -9 0
-8 -9 0
-10 -11 0
-10 -12 0
-11 -12 0
-13 -14 0
-13 -15 0
-14 -15 0
-16 -17 0
-16 -18 0
-17 -18 0
-19 -20 0
-19 -21 0
-20 -21 0
-22 -23 0
-22 -24 0
-23 -24 0
-25 -26 0
-25 -27 0
-26 -27 0
-28 -29 0
-28 -30 0
-29 -30 0
-31 -32 0
-31 -33 0
-32 -33 0
-34 -35 0
-34 -36 0
-35 -36 0
-37 -38 0
-37 -39 0
-38 -39 0
-40 -41 0
-40 -42 0
-41 -42 0
-43 -44 0
-43 -45 0
-44 -45 0
-46 -47 0
-46 -48 0
-47 -48 0
-49 -50 0
-49 -51 0
-50 -51 0
-52 -53 0
-52 -54 0
-53 -54 0
-55 -56 0
-55 -57 0
-56 -57 0
-58 -59 0
-58 -60 0
-59 -60 0
-61 -62 0
-61 -63 0
-62 -63 0
-64 -65 0
-64 -66 0
-65 -66 0
-67 -68 0
-67 -69 0
-68 -69 0
-70 -71 0
-70 -72 0
-71 -72 0
-73 -74 0
-73 -75 0
-74 -75 0
-76 -77 0
-76 -78 0
-77 -78 0
-79 -80 0
-79 -81 0
-80 -81 0
-82 -83 0
-82 -84 0
-83 -84 0
-85 -86 0
-85 -87 0
-86 -87 0
-88 -89 0
-88 -90 0
-89 -90 0
-1 -4 0
-2 -5 0
-3 -6 0
-1 -7 0
-2 -8 0
-3 -9 0
-1 -22 0
-2 -23 0
-3 -24 0
-1 -31 0
-2 -32 0
-3 -33 0
-1 -34 0
-2 -35 0
-3 -36 0
-1 -46 0
-2 -47 0
-3 -48 0
-1 -49 0
-2 -50 0
-3 -51 0
-1 -55 0
-2 -56 0
-3 -57 0
-1 -61 0
-2 -62 0
-3 -63 0
-1 -64 0
-2 -65 0
-3 -66 0
-1 -73 0
-2 -74 0
-3 -75 0
-1 -88 0
-2 -89 0
-3 -90 0
-4 -7 0
-5 -8 0
-6 -9 0
-4 -10 0
-5 -11 0
-6 -12 0
-4 -16 0
-5 -17 0
-6 -18 0
-4 -28 0
-5 -29 0
-6 -30 0
-4 -31 0
-5 -32 0
-6 -33 0
-4 -34 0
-5 -35 0
-6 -36 0
-4 -37 0
-5 -38 0
-6 -39 0
-4 -43 0
-5 -44 0
-6 -45 0
-4 -46 0
-5 -47 0
-6 -48 0
-4 -58 0
-5 -59 0
-6 -60 0
-4 -64 0
-5 -65 0
-6 -66 0
-4 -70 0
-5 -71 0
-6 -72 0
-4 -88 0
-5 -89 0
-6 -90 0
-7 -10 0
-8 -11 0
-9 -12 0
-7 -16 0
-8 -17 0
-9 -18 0
-7 -25 0
-8 -26 0
-9 -27 0
-7 -28 0
-8 -29 0
-9 -30 0
-7 -31 0
-8 -32 0
-9 -33 0
-7 -34 0
-8 -35 0
-9 -36 0
-7 -40 0
-8 -41 0
-9 -42 0
-7 -43 0
-8 -44 0
-9 -45 0
-7 -58 0
-8 -59 0
-9 -60 0
-7 -67 0
-8 -68 0
-9 -69 0
-7 -82 0
-8 -83 0
-9 -84 0
-7 -85 0
-8 -86 0
-9 -87 0
-7 -88 0
-8 -89 0
-9 -90 0
-10 -13 0
-11 -14 0
-12 -15 0
-10 -16 0
-11 -17 0
-12 -18 0
-10 -19 0
-11 -20 0
-12 -21 0
-10 -22 0
-11 -23 0
-12 -24 0
-10 -34 0
-11 -35 0
-12 -36 0
-10 -43 0
-11 -44 0
-12 -45 0
-10 -49 0
-11 -50 0
-12 -51 0
-10 -55 0
-11 -56 0
-12 -57 0
-10 -58 0
-11 -59 0
-12 -60 0
-10 -64 0
-11 -65 0
-12 -66 0
-10 -67 0
-11 -68 0
-12 -69 0
-10 -70 0
-11 -71 0
-12 -72 0
-10 -73 0
-11 -74 0
-12 -75 0
-10 -88 0
-11 -89 0
-12 -90 0
-13 -16 0
-14 -17 0
-15 -18 0
-13 -22 0
-14 -23 0
-15 -24 0
-13 -25 0
-14 -26 0
-15 -27 0
-13 -28 0
-14 -29 0
-15 -30 0
-13 -31 0
-14 -32 0
-15 -33 0
-13 -37 0
-14 -38 0
-15 -39 0
-13 -49 0
-14 -50 0
-15 -51 0
-13 -58 0
-14 -59 0
-15 -60 0
-13 -67 0
-14 -68 0
-15 -69 0
-13 -70 0
-14 -71 0
-15 -72 0
-13 -73 0
-14 -74 0
-15 -75 0
-13 -85 0
-14 -86 0
-15 -87 0
-13 -88 0
-14 -89 0
-15 -90 0
-16 -19 0
-17 -20 0
-18 -21 0
-16 -22 0
-17 -23 0
-18 -24 0
-16 -37 0
-17 -38 0
-18 -39 0
-16 -40 0
-17 -41 0
-18 -42 0
-16 -46 0
-17 -47 0
-18 -48 0
-16 -52 0
-17 -53 0
-18 -54 0
-16 -58 0
-17 -59 0
-18 -60 0
-16 -64 0
-17 -65 0
-18 -66 0
-16 -79 0
-17 -80 0
-18 -81 0
-16 -85 0
-17 -86 0
-18 -87 0
-19 -22 0
-20 -23 0
-21 -24 0
-19 -25 0
-20 -26 0
-21 -27 0
-19 -28 0
-20 -29 0
-21 -30 0
-19 -31 0
-20 -32 0
-21 -33 0
-19 -34 0
-20 -35 0
-21 -36 0
-19 -40 0
-20 -41 0
-21 -42 0
-19 -46 0
-20 -47 0
-21 -48 0
-19 -64 0
-20 -65 0
-21 -66 0
-19 -67 0
-20 -68 0
-21 -69 0
-19 -70 0
-20 -71 0
-21 -72 0
-19 -76 0
-20 -77 0
-21 -78 0
-19 -79 0
-20 -80 0
-21 -81 0
-19 -85 0
-20 -86 0
-21 -87 0
-22 -25 0
-23 -26 0
-24 -27 0
-22 -34 0
-23 -35 0
-24 -36 0
-22 -40 0
-23 -41 0
-24 -42 0
-22 -43 0
-23 -44 0
-24 -45 0
-22 -55 0
-23 -56 0
-24 -57 0
-22 -64 0
-23 -65 0
-24 -66 0
-22 -70 0
-23 -71 0
-24 -72 0
-22 -85 0
-23 -86 0
-24 -87 0
-22 -88 0
-23 -89 0
-24 -90 0
-25 -31 0
-26 -32 0
-27 -33 0
-25 -46 0
-26 -47 0
-27 -48 0
-25 -49 0
-26 -50 0
-27 -51 0
-25 -67 0
-26 -68 0
-27 -69 0
-25 -70 0
-26 -71 0
-27 -72 0
-25 -82 0
-26 -83 0
-27 -84 0
-25 -85 0
-26 -86 0
-27 -87 0
-28 -31 0
-29 -32 0
-30 -33 0
-28 -34 0
-29 -35 0
-30 -36 0
-28 -37 0
-29 -38 0
-30 -39 0
-28 -40 0
-29 -41 0
-30 -42 0
-28 -46 0
-29 -47 0
-30 -48 0
-28 -52 0
-29 -53 0
-30 -54 0
-28 -55 0
-29 -56 0
-30 -57 0
-28 -76 0
-29 -77 0
-30 -78 0
-28 -82 0
-29 -83 0
-30 -84 0
-28 -88 0
-29 -89 0
-30 -90 0
-31 -37 0
-32 -38 0
-33 -39 0
-31 -40 0
-32 -41 0
-33 -42 0
-31 -55 0
-32 -56 0
-33 -57 0
-31 -67 0
-32 -68 0
-33 -69 0
-31 -70 0
-32 -71 0
-33 -72 0
-31 -73 0
-32 -74 0
-33 -75 0
-31 -76 0
-32 -77 0
-33 -78 0
-31 -79 0
-32 -80 0
-33 -81 0
-34 -40 0
-35 -41 0
-36 -42 0
-34 -46 0
-35 -47 0
-36 -48 0
-34 -55 0
-35 -56 0
-36 -57 0
-34 -61 0
-35 -62 0
-36 -63 0
-34 -64 0
-35 -65 0
-36 -66 0
-34 -79 0
-35 -80 0
-36 -81 0
-34 -82 0
-35 -83 0
-36 -84 0
-34 -88 0
-35 -89 0
-36 -90 0
-37 -40 0
-38 -41 0
-39 -42 0
-37 -67 0
-38 -68 0
-39 -69 0
-37 -76 0
-38 -77 0
-39 -78 0
-37 -85 0
-38 -86 0
-39 -87 0
-40 -46 0
-41 -47 0
-42 -48 0
-40 -49 0
-41 -50 0
-42 -51 0
-40 -67 0
-41 -68 0
-42 -69 0
-40 -70 0
-41 -71 0
-42 -72 0
-40 -76 0
-41 -77 0
-42 -78 0
-40 -79 0
-41 -80 0
-42 -81 0
-43 -61 0
-44 -62 0
-45 -63 0
-43 -85 0
-44 -86 0
-45 -87 0
-43 -88 0
-44 -89 0
-45 -90 0
-46 -52 0
-47 -53 0
-48 -54 0
-46 -67 0
-47 -68 0
-48 -69 0
-46 -82 0
-47 -83 0
-48 -84 0
-49 -67 0
-50 -68 0
-51 -69 0
-49 -70 0
-50 -71 0
-51 -72 0
-49 -73 0
-50 -74 0
-51 -75 0
-49 -79 0
-50 -80 0
-51 -81 0
-52 -55 0
-53 -56 0
-54 -57 0
-52 -85 0
-53 -86 0
-54 -87 0
-55 -70 0
-56 -71 0
-57 -72 0
-55 -73 0
-56 -74 0
-57 -75 0
-55 -85 0
-56 -86 0
-57 -87 0
-58 -61 0
-59 -62 0
-60 -63 0
-58 -76 0
-59 -77 0
-60 -78 0
-58 -85 0
-59 -86 0
-60 -87 0
-61 -64 0
-62 -65 0
-63 -66 0
-61 -67 0
-62 -68 0
-63 -69 0
-61 -82 0
-62 -83 0
-63 -84 0
-61 -85 0
-62 -86 0
-63 -87 0
-61 -88 0
-62 -89 0
-63 -90 0
-64 -85 0
-65 -86 0
-66 -87 0
-67 -79 0
-68 -80 0
-69 -81 0
-67 -88 0
-68 -89 0
-69 -90 0
-70 -85 0
-71 -86 0
-72 -87 0
-70 -88 0
-71 -89 0
-72 -90 0
-73 -82 0
-74 -83 0
-75 -84 0
-73 -85 0
-74 -86 0
-75 -87 0
-76 -79 0
-77 -80 0
-78 -81 0
-79 -82 0
-80 -83 0
-81 -84 0
-82 -85 0
-83 -86 0
-84 -87 0
-85 -88 0
-86 -89 0
-87 -90 0
